
Gurobi 11.0.1 (win64) logging started Thu May 23 22:21:39 2024

Set parameter LogFile to value "./results//log/BAG_05_p1_1_deadline.log"
Gurobi Optimizer version 11.0.1 build v11.0.1rc0 (win64 - Windows 11.0 (22631.2))

CPU model: AMD Ryzen 7 3700X 8-Core Processor, instruction set [SSE2|AVX|AVX2]
Thread count: 8 physical cores, 16 logical processors, using up to 16 threads

